1111 0 2 0120 0222 0280 0331 0393 0453
2222 0 1 0259 0300 0360 0400 0430 0460
3333 0 3 0270 0300 0320 0331 0375 0400
4444 1 1 0300 0320 0355 0380
5555 1 2 0120 0222 0280 0331 0393 0453
6666 1 4 0011 0222 0280 0331 0393 0453
7777 1 3 0250